30
1188
1188
80 77 80 77 
87 94 87 94 
68 71 68 71 
72 63 72 63 
66 96 66 96 
77 82 77 82 
99 85 99 85 
85 75 85 75 
70 72 70 72 
93 91 93 91 
98 99 98 99 
72 63 72 63 
100 84 100 84 
89 87 89 87 
67 79 67 79 
86 94 86 94 
91 90 91 90 
79 60 79 60 
71 69 71 69 
99 62 99 62 
69 60 69 60 
83 74 83 74 
76 62 76 62 
94 76 94 76 
61 82 61 82 
88 88 88 88 
62 100 62 100 
77 96 77 96 
64 83 64 83 
75 89 75 89 